26
40         50          0          0        960          0   
25         85         20        673        793         10   
22         75         30        152        272         10   
22         85         10        471        591         10   
20         80         40        644        764         10   
20         85         20         73        193         10   
18         75         20        388        508         10   
15         75         20        300        420         10   
15         80         10        367        487         10   
10         35         20        371        491         10   
10         40         30        519        639         10   
8         40         40        195        315         10   
8         45         20        223        343         10   
5         35         10        653        773         10   
5         45         10         35        155         10   
2         40         20        174        294         10   
0         40         20        255        375         10   
0         45         20        703        823         10   
44          5         20        335        455         10   
42         10         40        254        374         10   
42         15         10        537        657         10   
40          5         10        215        335         10   
40         15         40        375        495         10   
38          5         30        201        321         10   
38         15         10        681        801         10   
35          5         20        784        904         10   
